166
300
239	3
237	2
235	2
234	1
233	3
232	3
230	5
229	3
228	2
227	1
226	2
225	1
224	1
223	1
222	1
221	3
220	1
219	1
218	1
215	1
213	1
212	2
211	2
210	2
209	1
208	4
207	4
206	3
205	4
204	3
203	1
202	2
201	3
199	6
198	3
197	1
195	2
194	1
193	5
192	2
191	1
190	5
189	2
188	2
187	1
186	1
185	1
184	1
183	4
182	1
181	5
180	3
179	3
178	3
176	1
175	1
173	4
172	1
170	4
169	3
168	2
167	4
166	2
165	4
164	5
163	3
162	4
161	4
160	1
159	2
157	2
156	3
155	2
154	1
153	3
152	3
151	4
150	6
149	2
148	3
147	2
145	3
144	2
143	5
142	3
141	3
140	1
139	2
138	3
137	3
136	5
135	3
134	3
133	5
132	3
131	5
130	1
129	3
128	1
127	2
126	2
125	1
124	2
123	2
122	4
121	2
120	2
119	4
118	1
117	1
116	2
115	3
114	1
112	1
111	1
110	1
109	1
108	1
107	2
106	2
105	3
104	1
103	2
102	2
101	2
100	1
99	3
98	2
97	1
96	3
95	2
94	3
93	2
92	2
91	1
90	2
89	1
88	2
87	3
86	5
85	1
84	2
83	3
82	1
81	4
80	4
79	4
78	2
77	1
76	2
75	6
74	2
73	3
72	2
71	1
70	2
69	2
68	2
67	3
66	5
65	3
64	3
63	2
62	2
61	1
60	3
